c Random generated cnf formula, satisfiable: false
p cnf 10 50
9 -7 -2 0
-4 -10 -2 0
8 6 7 0
-6 -10 -8 0
1 3 -10 0
1 -9 -3 0
8 3 2 0
-2 5 -7 0
-7 10 -8 0
-10 7 6 0
8 10 -6 0
-5 -6 -9 0
-9 5 -1 0
-1 -4 6 0
-10 -3 -1 0
8 2 10 0
1 -7 2 0
8 -4 9 0
-8 -1 2 0
-9 -7 2 0
2 -3 -9 0
2 -10 5 0
3 6 5 0
8 -4 5 0
7 -4 -3 0
8 -10 -5 0
3 -2 -4 0
6 -4 -2 0
-3 -2 9 0
-3 10 5 0
-3 5 1 0
10 2 3 0
1 2 -10 0
10 3 -9 0
-10 6 7 0
6 3 4 0
-6 5 -9 0
2 -4 -1 0
-1 -6 -3 0
-4 -3 2 0
-1 -7 8 0
7 4 -1 0
-8 -7 5 0
2 7 8 0
3 10 9 0
1 2 -9 0
-6 -1 7 0
-3 -1 -4 0
1 7 2 0
3 7 6 0
